80 80
94 27 1
99 15 1
69 10 1
70 31 1
80 21 1
96 49 1
94 10 1
71 21 1
14 26 1
66 45 1
39 80 1
22 22 1
77 43 1
79 3 1
99 44 1
98 36 1
88 22 1
1 22 1
79 28 1
88 11 1
72 13 1
93 52 1
3 25 1
87 48 1
48 15 1
47 45 1
98 33 1
94 46 1
99 29 1
74 49 1
67 2 1
74 6 1
73 4 1
40 15 1
21 89 1
96 77 1
89 41 1
79 93 1
100 27 1
91 60 1
79 40 1
80 82 1
94 31 1
48 69 1
77 50 1
95 33 1
96 48 1
76 13 1
75 72 1
77 46 1
9 83 1
97 31 1
96 56 1
67 20 1
90 15 1
37 73 1
28 66 1
100 6 1
81 16 1
94 3 1
80 9 1
71 3 1
22 86 1
69 6 1
84 28 1
86 12 1
89 4 1
32 80 1
44 71 1
12 33 1
56 90 1
20 48 1
81 50 1
6 16 1
41 92 1
20 37 1
74 4 1
74 10 1
91 48 1
87 37 1
100 100 
100 100 
100 100 
100 100 
100 100 
100 100 
100 100 
100 100 
100 100 
100 100 
100 100 
100 100 
100 100 
100 100 
100 100 
100 100 
100 100 
100 100 
100 100 
100 100 
100 100 
100 100 
100 100 
100 100 
100 100 
100 100 
100 100 
100 100 
100 100 
100 100 
100 100 
100 100 
100 100 
100 100 
100 100 
100 100 
100 100 
100 100 
100 100 
100 100 
100 100 
100 100 
100 100 
100 100 
100 100 
100 100 
100 100 
100 100 
100 100 
100 100 
100 100 
100 100 
100 100 
100 100 
100 100 
100 100 
100 100 
100 100 
100 100 
100 100 
100 100 
100 100 
100 100 
100 100 
100 100 
100 100 
100 100 
100 100 
100 100 
100 100 
100 100 
100 100 
100 100 
100 100 
100 100 
100 100 
100 100 
100 100 
100 100 
100 100 
